words_hard_train/6703.qaiger
aag 22 9 0 1 13
2
4
8
12
16
18
22
26
30
45
6 2 4
10 6 8
14 10 12
20 16 19
24 20 22
28 24 26
32 29 30
34 14 33
36 17 27
38 36 18
40 38 23
42 41 31
44 34 43
i0 1 x2[2]
i1 1 x2[1]
i2 1 x2[3]
i3 1 x2[0]
i4 1 x2[7]
i5 2 y1[4]
i6 1 x2[4]
i7 1 x2[5]
i8 1 x2[6]
o0 bool[0]
c
simplified
  !=
    1 x2
    subtract
      and
        2 y1
        << 4
          1
      1
