words_hard_train/6703.qaiger.qdimacs
p cnf 22 40
a 1 2 4 6 8 11 13 15 0
e 3 5 7 9 10 12 14 16 17 18 19 20 21 22 0
-1 -2 3 0
1 -3 0
2 -3 0
-3 -4 5 0
3 -5 0
4 -5 0
-5 -6 7 0
5 -7 0
6 -7 0
-8 9 10 0
8 -10 0
-9 -10 0
-10 -11 12 0
10 -12 0
11 -12 0
-12 -13 14 0
12 -14 0
13 -14 0
14 -15 16 0
-14 -16 0
15 -16 0
-7 16 17 0
7 -17 0
-16 -17 0
8 13 18 0
-8 -18 0
-13 -18 0
-18 -9 19 0
18 -19 0
9 -19 0
-19 11 20 0
19 -20 0
-11 -20 0
20 15 21 0
-20 -21 0
-15 -21 0
-17 21 22 0
17 -22 0
-21 -22 0
-22 0
